RT is False
Default write of storage_offers_DA.csv just to have a file (but constraint should be inactive)
Reading model...
...model read.
creating competitive generators file...
...competitive generators recorded.
Loading data...
.. day-ahead data with real-time VRE data read.
Compiling instance...
...instance created.
Creating Offer Mitigation (model will solve as dispatch if TRUE)...
Solving...

Welcome to IBM(R) ILOG(R) CPLEX(R) Interactive Optimizer 12.9.0.0
  with Simplex, Mixed Integer & Barrier Optimizers
5725-A06 5725-A29 5724-Y48 5724-Y49 5724-Y54 5724-Y55 5655-Y21
Copyright IBM Corp. 1988, 2019.  All Rights Reserved.

Type 'help' for a list of available commands.
Type 'help' followed by a command name for more
information on commands.

CPLEX> Logfile 'cplex.log' closed.
Logfile 'C:\Users\llavin\Desktop\test919\logs\tmpq8dc_ofq.cplex.log' open.
CPLEX> New value for parallel optimization mode: -1
CPLEX> New value for mixed integer optimality gap tolerance: 0.01
CPLEX> New value for integrality tolerance: 1e-09
CPLEX> New value for feasibility tolerance: 0.01
CPLEX> New value for deterministic time limit in ticks: 75000
CPLEX> Problem 'C:\Users\llavin\Desktop\test919\logs\tmp0po2y4ew.pyomo.lp' read.
Read time = 0.05 sec. (3.04 ticks)
CPLEX> Problem name         : C:\Users\llavin\Desktop\test919\logs\tmp0po2y4ew.pyomo.lp
Objective sense      : Minimize
Variables            :   26081  [Nneg: 1,  Box: 21616,  Free: 4464]
Objective nonzeros   :    2496
Linear constraints   :   27515  [Less: 14006,  Greater: 4416,  Equal: 9093]
  Nonzeros           :   89219
  RHS nonzeros       :   12271

Variables            : Min LB: -5000.000        Max UB: 1000000.       
Objective nonzeros   : Min   : 15.73158         Max   : 124.0997       
Linear constraints   :
  Nonzeros           : Min   : 0.8500000        Max   : 3000.000       
  RHS nonzeros       : Min   : 0.5583333        Max   : 5000.000       
CPLEX> CPXPARAM_Parallel                                -1
CPXPARAM_Simplex_Tolerances_Feasibility          0.01
CPXPARAM_DetTimeLimit                            75000
CPXPARAM_MIP_Tolerances_MIPGap                   0.01
CPXPARAM_MIP_Tolerances_Integrality              1.0000000000000001e-09
Parallel mode: opportunistic, using up to 32 threads for concurrent optimization.
Tried aggregator 1 time.
LP Presolve eliminated 21377 rows and 15487 columns.
Aggregator did 746 substitutions.
Reduced LP has 5392 rows, 9848 columns, and 31788 nonzeros.
Presolve time = 0.05 sec. (30.19 ticks)
Symmetry aggregator did 5563 additional substitutions.
Initializing dual steep norms . . .

Iteration log . . .
Iteration:     1   Dual objective     =             0.000000
Perturbation started.
Iteration:   101   Dual objective     =             0.000000
Iteration:   291   Dual objective     =            48.718155
Iteration:   436   Dual objective     =            71.146742
Iteration:   642   Dual objective     =            73.607479
Iteration:   905   Dual objective     =        329203.076448
Iteration:  1093   Dual objective     =        480881.737865
Iteration:  1398   Dual objective     =        488727.712707
Removing perturbation.

Dual crossover.
  Dual:  Fixing 8 variables.
        7 DMoves:  Infeasibility  8.86046791e-14  Objective  4.89819702e+05
        0 DMoves:  Infeasibility  1.22213351e-14  Objective  4.89819702e+05
  Dual:  Pushed 0, exchanged 8.
  Primal:  Fixing 10 variables.
        9 PMoves:  Infeasibility  1.26602018e-09  Objective  4.89819702e+05
Using devex.

Primal simplex solved model.


Primal simplex - Optimal:  Objective =  4.8981970188e+05
Solution time =    0.17 sec.  Iterations = 1763 (1127)
Deterministic time = 82.94 ticks  (482.22 ticks/sec)

CPLEX> Solution written to file 'C:\Users\llavin\Desktop\test919\logs\tmpi_hm1gr8.cplex.sol'.
CPLEX> Exporting results... 
...storage offer mitigation file created
Converting model to MPEC...
...converted
NOTE: initial MIP solve with only storage competitive to get feasible solution
Solving...

Welcome to IBM(R) ILOG(R) CPLEX(R) Interactive Optimizer 12.9.0.0
  with Simplex, Mixed Integer & Barrier Optimizers
5725-A06 5725-A29 5724-Y48 5724-Y49 5724-Y54 5724-Y55 5655-Y21
Copyright IBM Corp. 1988, 2019.  All Rights Reserved.

Type 'help' for a list of available commands.
Type 'help' followed by a command name for more
information on commands.

CPLEX> Logfile 'cplex.log' closed.
Logfile 'C:\Users\llavin\Desktop\test919\logs\tmp_62mp0m5.cplex.log' open.
CPLEX> New value for parallel optimization mode: -1
CPLEX> New value for mixed integer optimality gap tolerance: 0.01
CPLEX> New value for integrality tolerance: 1e-09
CPLEX> New value for feasibility tolerance: 0.01
CPLEX> New value for deterministic time limit in ticks: 75000
CPLEX> Problem 'C:\Users\llavin\Desktop\test919\logs\tmp13ftlv3j.pyomo.lp' read.
Read time = 0.23 sec. (14.78 ticks)
CPLEX> Problem name         : C:\Users\llavin\Desktop\test919\logs\tmp13ftlv3j.pyomo.lp
Objective sense      : Maximize
Variables            :   53805  [Nneg: 1,  Box: 22000,  Free: 4464,
                                 Binary: 27340]
Objective nonzeros   :    9029
Linear constraints   :  123205  [Less: 41346,  Greater: 59096,  Equal: 22763]
  Nonzeros           :  291753
  RHS nonzeros       :   67475

Variables            : Min LB: -5000.000        Max UB: 1000000.       
Objective nonzeros   : Min   : 0.5583333        Max   : 2500.000       
Linear constraints   :
  Nonzeros           : Min   : 0.5583333        Max   : 1000000.       
  RHS nonzeros       : Min   : 0.5583333        Max   : 1000000.       
CPLEX> CPXPARAM_Parallel                                -1
CPXPARAM_Simplex_Tolerances_Feasibility          0.01
CPXPARAM_DetTimeLimit                            75000
CPXPARAM_MIP_Tolerances_MIPGap                   0.01
CPXPARAM_MIP_Tolerances_Integrality              1.0000000000000001e-09
Tried aggregator 3 times.
MIP Presolve eliminated 88681 rows and 19005 columns.
MIP Presolve added 3357 rows and 0 columns.
MIP Presolve modified 24784 coefficients.
Aggregator did 12954 substitutions.
Reduced MIP has 24927 rows, 21290 columns, and 71085 nonzeros.
Reduced MIP has 8406 binaries, 0 generals, 0 SOSs, and 0 indicators.
Presolve time = 0.30 sec. (175.91 ticks)
Probing fixed 414 vars, tightened 2867 bounds.
Probing time = 1.28 sec. (914.43 ticks)
Tried aggregator 2 times.
MIP Presolve eliminated 938 rows and 829 columns.
MIP Presolve modified 2213 coefficients.
Aggregator did 41 substitutions.
Reduced MIP has 23948 rows, 20420 columns, and 68252 nonzeros.
Reduced MIP has 7992 binaries, 0 generals, 0 SOSs, and 0 indicators.
Presolve time = 0.11 sec. (69.44 ticks)
Probing fixed 0 vars, tightened 1 bounds.
Probing time = 0.06 sec. (21.19 ticks)
Clique table members: 6475.
MIP emphasis: balance optimality and feasibility.
MIP search method: dynamic search.
Parallel mode: opportunistic, using up to 32 threads.
Root relaxation solution time = 0.44 sec. (313.57 ticks)

        Nodes                                         Cuts/
   Node  Left     Objective  IInf  Best Integer    Best Bound    ItCnt     Gap

      0     0     1355.3819  2000                   1355.3819     7167         
      0     0     1355.3223    40                    Cuts: 36     7185         
      0     0     1355.3223    36                    Cuts: 17     7191         
      0     0     1355.3223    35                     Cuts: 8     7192         
      0    30    infeasible                          Fract: 2     7930         
Elapsed time = 9.86 sec. (6314.98 ticks, tree = 0.04 MB, solutions = 0)
    524   208    -2216.7090    17                   1274.4715    14791         
*   718+  556                        -3062.7266     1274.4715           141.61%
   1232   517    infeasible          -3062.7266     1248.6714    22252  140.77%
*  1382   585      integral     0      941.9208     1248.6714    22835   32.57%
   2147   284     1184.5777     2     1197.8311     1248.6714    28374    4.24%
*  2297   276      integral     0     1225.5510     1248.6714    28807    1.89%
   2853    75     1248.6714     3     1227.1504     1248.6714    31023    1.75%
   3394   147     1248.1549     2     1227.1504     1248.6714    31265    1.75%
   3719   208     1248.6714     3     1227.1504     1248.6714    31565    1.75%
   4035   441        cutoff           1227.1504     1248.6714    32456    1.75%
   4972   348        cutoff           1227.1504     1248.6714    80960    1.75%
Elapsed time = 25.09 sec. (9081.19 ticks, tree = 2.16 MB, solutions = 20)

Implied bound cuts applied:  7
Flow cuts applied:  20
Gomory fractional cuts applied:  17

Root node processing (before b&c):
  Real time             =    8.88 sec. (6313.62 ticks)
Parallel b&c, 32 threads:
  Real time             =   16.61 sec. (3721.84 ticks)
  Sync time (average)   =    1.79 sec.
  Wait time (average)   =    0.00 sec.
                          ------------
Total (root+branch&cut) =   25.48 sec. (10035.46 ticks)

Solution pool: 20 solutions saved.

MIP - Integer optimal, tolerance (0.01/1e-06):  Objective =  1.2271503550e+03
Current MIP best bound =  1.2393133661e+03 (gap = 12.163, 0.99%)
Solution time =   25.50 sec.  Iterations = 245380  Nodes = 5089 (174)
Deterministic time = 10035.61 ticks  (393.55 ticks/sec)

CPLEX> Incumbent solution written to file 'C:\Users\llavin\Desktop\test919\logs\tmppztp4goh.cplex.sol'.
CPLEX> NOTE: no warmstart specified for MIP iteration, default behavior is true
NOTE: resolving with all competitive generators using storage-only solution to warmstart
Solving...

Welcome to IBM(R) ILOG(R) CPLEX(R) Interactive Optimizer 12.9.0.0
  with Simplex, Mixed Integer & Barrier Optimizers
5725-A06 5725-A29 5724-Y48 5724-Y49 5724-Y54 5724-Y55 5655-Y21
Copyright IBM Corp. 1988, 2019.  All Rights Reserved.

Type 'help' for a list of available commands.
Type 'help' followed by a command name for more
information on commands.

CPLEX> Logfile 'cplex.log' closed.
Logfile 'C:\Users\llavin\Desktop\test919\logs\tmpgo3p1i3x.cplex.log' open.
CPLEX> New value for parallel optimization mode: -1
CPLEX> New value for mixed integer optimality gap tolerance: 0.01
CPLEX> New value for integrality tolerance: 1e-09
CPLEX> New value for feasibility tolerance: 0.01
CPLEX> New value for deterministic time limit in ticks: 75000
CPLEX> Problem 'C:\Users\llavin\Desktop\test919\logs\tmpj7xx9em9.pyomo.lp' read.
Read time = 0.23 sec. (14.81 ticks)
CPLEX> MIP start file 'C:\Users\llavin\Desktop\test919\logs\tmp6wphqgkb.cplex.mst' read.
CPLEX> Problem name         : C:\Users\llavin\Desktop\test919\logs\tmpj7xx9em9.pyomo.lp
Objective sense      : Maximize
Variables            :   54525  [Nneg: 1,  Box: 22720,  Free: 4464,
                                 Binary: 27340]
Objective nonzeros   :    9725
Linear constraints   :  123205  [Less: 41346,  Greater: 59096,  Equal: 22763]
  Nonzeros           :  291753
  RHS nonzeros       :   67475

Variables            : Min LB: -5000.000        Max UB: 1000000.       
Objective nonzeros   : Min   : 0.5583333        Max   : 2500.000       
Linear constraints   :
  Nonzeros           : Min   : 0.5583333        Max   : 1000000.       
  RHS nonzeros       : Min   : 0.5583333        Max   : 1000000.       
CPLEX> CPXPARAM_Parallel                                -1
CPXPARAM_Simplex_Tolerances_Feasibility          0.01
CPXPARAM_DetTimeLimit                            75000
CPXPARAM_MIP_Tolerances_MIPGap                   0.01
CPXPARAM_MIP_Tolerances_Integrality              1.0000000000000001e-09
Warning:  No solution found from 1 MIP starts.
Retaining values of one MIP start for possible repair.
Tried aggregator 3 times.
MIP Presolve eliminated 88681 rows and 19725 columns.
MIP Presolve added 3357 rows and 0 columns.
MIP Presolve modified 24784 coefficients.
Aggregator did 12954 substitutions.
Reduced MIP has 24927 rows, 21290 columns, and 71085 nonzeros.
Reduced MIP has 8406 binaries, 0 generals, 0 SOSs, and 0 indicators.
Presolve time = 0.30 sec. (176.28 ticks)
Probing fixed 414 vars, tightened 2867 bounds.
Probing time = 1.28 sec. (914.43 ticks)
Tried aggregator 2 times.
MIP Presolve eliminated 938 rows and 829 columns.
MIP Presolve modified 2213 coefficients.
Aggregator did 41 substitutions.
Reduced MIP has 23948 rows, 20420 columns, and 68252 nonzeros.
Reduced MIP has 7992 binaries, 0 generals, 0 SOSs, and 0 indicators.
Presolve time = 0.11 sec. (69.44 ticks)
Probing fixed 0 vars, tightened 1 bounds.
Probing time = 0.05 sec. (21.19 ticks)
Clique table members: 6475.
MIP emphasis: balance optimality and feasibility.
MIP search method: dynamic search.
Parallel mode: opportunistic, using up to 32 threads.
Root relaxation solution time = 0.39 sec. (294.82 ticks)

        Nodes                                         Cuts/
   Node  Left     Objective  IInf  Best Integer    Best Bound    ItCnt     Gap

      0     0   102772.8479  2100                 102772.8479     6707         
      0     0   102530.5062   740                   Cuts: 928     7190         
      0     0   102504.3710   504                   Cuts: 723     7513         
      0     0   102412.9328   406                   Cuts: 274     7641         
      0     0   102410.6536   387                    Cuts: 79     7686         
      0     0   102409.6040   374                    Cuts: 42     7703         
      0     0   102408.2127   367                    Cuts: 27     7712         
      0     0   102408.2127   364                    Cuts: 26     7721         
      0     0   102408.2127   361                    Cuts: 19     7724         
Repair heuristic found nothing.
      0     2   102408.2127   361                    Cuts: 24     7724         
Elapsed time = 11.98 sec. (7013.82 ticks, tree = 0.02 MB, solutions = 0)
    403    67   100503.6635   335                 101115.0415     8673         
    815   536    97460.1407   291                 101115.0415    11871         
   1363  1206    88675.1154   251                 101115.0415    16309         
   1986  1902    98247.2465   259                 101115.0415    19671         
   2730  1867    96951.0651   215                 101115.0415    19441         
   3418  1986    92586.5552   215                 101115.0415    19970         
   4016  2869    96951.0651   177                 101115.0415    24802         
   4594  4035    86555.2445   244                 101115.0415    28841         
   5204  4005    88546.2697   169                 101115.0415    28368         
*  8134+ 5652                        88528.9351   101115.0415            14.22%
Elapsed time = 29.92 sec. (10102.93 ticks, tree = 47.05 MB, solutions = 6)
*  8363  6137      integral     0    97138.0215   101115.0415    34675    4.09%
*  8726  6972      integral     0    97198.8409   101115.0415    37361    4.03%
   8915  2788        cutoff          97198.8409   101115.0415    54524    4.03%
  10076   110    99221.7862   137    97198.8409   101115.0415    55844    4.03%
  10984  1372    98634.5345    83    97198.8409   101115.0415    64245    4.03%
  13735  1455    99884.5474    76    97198.8409   100970.9988    64895    3.88%
  16773  2200    97485.0704    77    97198.8409   100912.6911    69529    3.82%
  19568  3762   100038.3210    75    97198.8409   100764.6752    80589    3.67%
  20404  5927   100106.0896   105    97198.8409   100764.6752    95671    3.67%
  21088  8897    99308.9886    64    97198.8409   100711.2330   113972    3.61%
Elapsed time = 70.27 sec. (22582.72 ticks, tree = 86.83 MB, solutions = 6)
  21621 11321    98732.8962    58    97198.8409   100711.2330   125259    3.61%
  23917 12452    98991.7432    61    97198.8409   100637.3466   130678    3.54%
  27069 11555   100213.4557    95    97198.8409   100477.1044   125969    3.37%
  30196 13696    98714.0062    57    97198.8409   100456.4534   136260    3.35%
  33240 18533    99798.7185    76    97946.5563   100432.8436   163484    2.54%
  36033 18752    98567.6367    46    98476.4797   100423.2438   164292    1.98%
* 37206 19946      integral     0    98571.7051   100423.2438   191105    1.88%
  40016 19908    99877.9942    76    98797.1450   100423.2438   181958    1.65%
* 41990 21714      integral     0    99001.6213   100423.2438   205830    1.44%
  42947 20863    99470.1278    79    99112.4373   100416.2085   207445    1.32%
* 43473 21561      integral     0    99133.3428   100416.2085   213635    1.29%
Elapsed time = 116.05 sec. (30770.82 ticks, tree = 210.40 MB, solutions = 41)
* 43629 21122      integral     0    99199.5598   100415.9948   219885    1.23%
* 45436 21037      integral     0    99428.9309   100415.9948   219598    0.99%
  48092 20858    99966.3515    71    99428.9309   100415.9948   227520    0.99%
  49591 18485   100240.0334    88    99428.9309   100415.9948   228157    0.99%
* 49636 20627      integral     0    99429.1782   100415.9948   226679    0.99%

GUB cover cuts applied:  1
Clique cuts applied:  30
Cover cuts applied:  11
Implied bound cuts applied:  11
Flow cuts applied:  495
Mixed integer rounding cuts applied:  36
Gomory fractional cuts applied:  88

Root node processing (before b&c):
  Real time             =   10.03 sec. (6982.44 ticks)
Parallel b&c, 32 threads:
  Real time             =  109.98 sec. (27351.19 ticks)
  Sync time (average)   =    1.49 sec.
  Wait time (average)   =    0.25 sec.
                          ------------
Total (root+branch&cut) =  120.02 sec. (34333.63 ticks)

Solution pool: 50 solutions saved.

MIP - Integer optimal, tolerance (0.01/1e-06):  Objective =  9.9429178206e+04
Current MIP best bound =  1.0040928543e+05 (gap = 980.107, 0.99%)
Solution time =  120.05 sec.  Iterations = 243583  Nodes = 50218 (21032)
Deterministic time = 34333.79 ticks  (286.00 ticks/sec)

CPLEX> Incumbent solution written to file 'C:\Users\llavin\Desktop\test919\logs\tmpny00wxks.cplex.sol'.
CPLEX> Exporting results... 
